language ESSENCE' 1.0
$ minion Nodes: 1
$ minion TotalTime: 0.000622
$ Savile Row TotalTime: 0.314
letting x_SetOccurrence be [[true, false, false;int(6..8)], 
[false, true, true;int(6..8)];int(1..2)]
